! PBE0 def2-TZVP(-f) def2/J RIJCOSX opt freq tightSCF noautostart miniprint nopop
%maxcore  1000
%geom
end
%pal nprocs   20 end
* xyz   0   1
O	6.295654272	5.443531538	5.82866711
N	4.280364055	10.49784059	9.072756497
C	2.669034462	4.715665619	2.19405215
H	2.259422302	5.57878416	2.702387398
C	2.006877262	4.208392649	1.091805324
H	1.090229393	4.666685897	0.74626275
C	2.515715931	3.099943928	0.427183271
C	3.685477466	2.498475378	0.869303059
H	4.074019005	1.628838916	0.355390897
C	4.343286647	3.011431449	1.972000051
H	5.256510408	2.543315686	2.318946015
C	3.850801403	4.128171695	2.651566544
C	4.603469628	4.628527162	3.80236159
H	5.510011918	4.08496545	4.053832626
C	4.321628829	5.681726909	4.570272356
H	3.452156758	6.300412783	4.394297946
C	5.259434119	6.054954694	5.661732637
C	4.932746837	7.222829685	6.53134648
C	5.979282265	7.809578025	7.246717217
H	6.971613221	7.393769564	7.132348849
C	5.753558093	8.895693606	8.063619113
H	6.564214604	9.375275121	8.596665751
C	4.458612724	9.391280607	8.230879794
C	3.406897932	8.806206819	7.527572826
H	2.406833955	9.209844035	7.625897891
C	3.64824799	7.739000664	6.676261184
H	2.815284564	7.299532822	6.14301913
C	3.35190758	10.49952815	9.933301008
H	2.693216819	9.63332594	10.073619
C	3.107970774	11.64985493	10.815915
C	3.88322879	12.80523352	10.71575363
H	4.666295785	12.83968981	9.970134588
C	3.646765136	13.87556305	11.55540951
H	4.24120793	14.7760063	11.47678206
C	2.63126487	13.80017565	12.5033276
C	1.851892634	12.65794763	12.60984519
H	1.0595846	12.61193508	13.34501003
C	2.093113785	11.58570734	11.76634207
H	1.487213172	10.69046498	11.84699451
C	1.833050788	2.560859715	-0.793423005
C	2.414856395	14.93884309	13.45556143
F	0.567331324	2.993377526	-0.90012753
F	2.468195864	2.926207072	-1.921528958
F	1.799973826	1.217638659	-0.789769876
F	1.130132126	15.04045856	13.83189995
F	2.771823368	16.11837327	12.92387446
F	3.138688392	14.78443428	14.57833287
*
