! PBE0 def2-TZVP(-f) def2/J RIJCOSX opt freq tightSCF noautostart miniprint nopop
%maxcore  1000
%geom
end
%pal nprocs   20 end
* xyz   0   1
  O	7.47329	0.65405	8.125309
  O	1.572175	5.835697	5.110378
  O	16.554525	5.182478	15.877123
  N	11.958709	2.947763	12.006893
  C	4.518799	4.807824	7.051825
  H	5.307452	5.270322	7.632016
  C	3.532993	5.610486	6.498588
  H	3.537489	6.683822	6.635931
  C	2.523855	5.020087	5.744587
  C	2.480093	3.650033	5.536307
  H	1.68434	3.223749	4.939638
  C	3.474805	2.856614	6.094584
  H	3.456826	1.78477	5.934242
  C	4.511724	3.415234	6.858821
  C	5.538462	2.526582	7.393854
  H	5.438328	1.473794	7.141475
  C	6.601107	2.850121	8.148063
  H	6.794396	3.873409	8.443528
  C	7.570048	1.797331	8.548988
  C	8.69551	2.170511	9.458664
  C	9.788292	1.294518	9.545155
  H	9.768905	0.394968	8.943076
  C	10.850871	1.567021	10.386535
  H	11.696683	0.894355	10.45918
  C	10.860125	2.735193	11.165925
  C	9.752975	3.596038	11.111528
  H	9.712092	4.460959	11.762905
  C	8.690461	3.317719	10.2614
  H	7.838675	3.986517	10.257269
  C	12.40436	4.126196	12.209484
  H	11.989797	5.000623	11.689824
  C	13.504524	4.39695	13.137747
  C	14.165429	3.353879	13.804165
  H	13.854031	2.335799	13.609261
  C	15.196622	3.630296	14.686458
  H	15.72509	2.842528	15.20785
  C	15.56147	4.954165	14.912817
  C	14.91782	6.008653	14.278091
  H	15.209732	7.028536	14.485539
  C	13.896291	5.718487	13.37995
  H	13.387029	6.530264	12.871891
  C	17.719883	5.739801	15.477351
  F	17.585022	7.043412	15.144911
  F	18.578206	5.660323	16.489991
  F	18.248023	5.115013	14.411095
  C	0.458239	6.151963	5.808075
  F	-0.25337	5.064244	6.162799
  F	-0.303292	6.922001	5.034745
  F	0.73589	6.826603	6.94197
 *
